Version identifier: 22.1.1.0 | 2022-11-28 | 9160aff4d
CPXPARAM_ClockType                               1
CPXPARAM_Read_DataCheck                          1
CPXPARAM_Threads                                 1
CPXPARAM_Simplex_Tolerances_Optimality           1.0000000000000001e-09
CPXPARAM_TimeLimit                               7200
CPXPARAM_MIP_Tolerances_AbsMIPGap                0
CPXPARAM_MIP_Tolerances_MIPGap                   0
CPXPARAM_MIP_Tolerances_Integrality              0
Tried aggregator 1 time.
MIQP Presolve eliminated 3247 rows and 9 columns.
MIQP Presolve modified 1658 coefficients.
Reduced MIQP has 21274 rows, 7491 columns, and 65616 nonzeros.
Reduced MIQP has 7116 binaries, 375 generals, 0 SOSs, and 0 indicators.
Reduced MIQP objective Q matrix has 375 nonzeros.
Presolve time = 0.06 sec. (44.47 ticks)
Probing time = 0.01 sec. (3.51 ticks)
Tried aggregator 1 time.
MIQP Presolve eliminated 1250 rows and 0 columns.
Reduced MIQP has 20024 rows, 7491 columns, and 61866 nonzeros.
Reduced MIQP has 7116 binaries, 375 generals, 0 SOSs, and 0 indicators.
Reduced MIQP objective Q matrix has 375 nonzeros.
Presolve time = 0.06 sec. (39.89 ticks)
Classifier predicts products in MIQP should be linearized.
Probing time = 0.01 sec. (3.37 ticks)
Clique table members: 10163.
MIP emphasis: balance optimality and feasibility.
MIP search method: dynamic search.
Parallel mode: none, using 1 thread.
Root relaxation solution time = 20.79 sec. (36646.89 ticks)

        Nodes                                         Cuts/
   Node  Left     Objective  IInf  Best Integer    Best Bound    ItCnt     Gap

      0     0     8333.3333  4137                   8333.3333        6         
      0     0     8333.3333  5912                  Cuts: 1631   484464         
      0     0     8333.3333  5972                  Cuts: 5106   543895         
Heuristic still looking.
Heuristic still looking.
Heuristic still looking.
      0     2     8333.3333  5795                   8333.3333   543895         
Elapsed time = 2259.28 sec. (850177.79 ticks, tree = 0.01 MB, solutions = 0)
      1     3     8333.3333  5872                   8333.3333   681912         
      2     4     8333.3333  5686                   8333.3333   773094         
      3     5     8333.3333  5618                   8333.3333   932363         
      4     6     8333.3333  5103                   8333.3333  1017266         
      5     5    infeasible                         8333.3333  1031236         
      6     4    infeasible                         8333.3333  1043265         
      7     3    infeasible                         8333.3333  1055566         
      8     2    infeasible                         8333.3333  1066423         
      9     1    infeasible                         8333.3333  1079534         
     10     0    infeasible                                    1090163         
Elapsed time = 3092.06 sec. (1208960.50 ticks, tree = 0.01 MB, solutions = 0)

Clique cuts applied:  109
Implied bound cuts applied:  4
Zero-half cuts applied:  230
Gomory fractional cuts applied:  12

Root node processing (before b&c):
  Real time             = 2259.26 sec. (850166.96 ticks)
Sequential b&c:
  Real time             =  832.80 sec. (358795.25 ticks)
                          ------------
Total (root+branch&cut) = 3092.06 sec. (1208962.21 ticks)
Solution is infeasible.

---------------------
@@@ MIP_infeasible
Traceback (most recent call last):
  File "/scratch/scherif/DiverseSAT-journal_sup/DiverseSAT_Supplementary_Experiments/experiment-1/cplex/jobs/../solvers/CPLEX-QP-SE.py", line 118, in <module>
    print(f">>> Benchmark {os.path.basename(cnf_file)} k {k} OPT {int(prob.solution.get_objective_value())}"
  File "/users/scherif/.local/lib/python3.9/site-packages/cplex/_internal/_subinterfaces.py", line 7211, in get_objective_value
    return CPX_PROC.getobjval(self._env._e, self._cplex._lp)
  File "/users/scherif/.local/lib/python3.9/site-packages/cplex/_internal/_procedural.py", line 2055, in getobjval
    check_status(env, status)
  File "/users/scherif/.local/lib/python3.9/site-packages/cplex/_internal/_procedural.py", line 249, in __call__
    raise CplexSolverError(error_string, env, status)
cplex.exceptions.errors.CplexSolverError: CPLEX Error  1217: No solution exists.
